100
    1   345   345
    2   299   299
    3   693   693
    4   796   796
    5   467   467
    6   429   429
    7   100   100
    8    65    65
    9   141   141
   10   623   623
   11   291   291
   12   702   702
   13   670   670
   14   999   999
   15   781   781
   16   401   401
   17    46    46
   18   196   196
   19    59    59
   20   904   904
   21   357   357
   22   204   204
   23   100   100
   24   720   720
   25   493   493
   26   408   408
   27   661   661
   28   327   327
   29   206   206
   30   148   148
   31   254   254
   32   617   617
   33   310   310
   34   611   611
   35   425   425
   36    15    15
   37   258   258
   38   320   320
   39   407   407
   40   679   679
   41   614   614
   42   791   791
   43   313   313
   44   604   604
   45   901   901
   46   801   801
   47   496   496
   48   893   893
   49   350   350
   50   246   246
   51   121   121
   52    44    44
   53   795   795
   54   973   973
   55   617   617
   56   821   821
   57   439   439
   58    63    63
   59   104   104
   60    94    94
   61   795   795
   62   386   386
   63   141   141
   64   805   805
   65   525   525
   66   505   505
   67   414   414
   68   612   612
   69    45    45
   70   241   241
   71   762   762
   72   570   570
   73   749   749
   74   150   150
   75   518   518
   76   700   700
   77   637   637
   78   564   564
   79   976   976
   80   897   897
   81   416   416
   82   713   713
   83   523   523
   84   595   595
   85   247   247
   86    39    39
   87   759   759
   88   848   848
   89   416   416
   90   304   304
   91   644   644
   92   168   168
   93   395   395
   94   658   658
   95   379   379
   96   634   634
   97   216   216
   98   978   978
   99   657   657
  100   127   127
31543
